
     Program PWSCF v.7.5 starts on 17Apr2026 at 18: 8:45 

     This program is part of the open-source Quantum ESPRESSO suite
     for quantum simulation of materials; please cite
         "P. Giannozzi et al., J. Phys.:Condens. Matter 21 395502 (2009);
         "P. Giannozzi et al., J. Phys.:Condens. Matter 29 465901 (2017);
         "P. Giannozzi et al., J. Chem. Phys. 152 154105 (2020);
          URL http://www.quantum-espresso.org", 
     in publications or presentations arising from this work. More details at
     http://www.quantum-espresso.org/quote

     Parallel version (MPI & OpenMP), running on       8 processor cores
     Number of MPI processes:                 8
     Threads/MPI process:                     1

     MPI processes distributed on     1 nodes
     0 MiB available memory on the printing compute node when the environment starts

     Reading input from fe_bcc_fm_scf.in

     Current dimensions of program PWSCF are:
     Max number of different atomic species (ntypx) = 10
     Max number of k-points (npk) =  40000
     Max angular momentum in pseudopotentials (lmaxx) =  4

     K-points division:     npool     =       2
     R & G space division:  proc/nbgrp/npool/nimage =       4
     Subspace diagonalization in iterative solution of the eigenvalue problem:
     a serial algorithm will be used


     Parallelization info
     --------------------
     sticks:   dense  smooth     PW     G-vecs:    dense   smooth      PW
     Min          24      24     10                  156      156      44
     Max          25      25     11                  157      157      45
     Sum          99      99     43                  627      627     177

     Using Slab Decomposition



     bravais-lattice index     =            3
     lattice parameter (alat)  =       5.4235  a.u.
     unit-cell volume          =      79.7644 (a.u.)^3
     number of atoms/cell      =            1
     number of atomic types    =            1
     number of electrons       =        16.00
     number of Kohn-Sham states=           12
     kinetic-energy cutoff     =      15.0000  Ry
     charge density cutoff     =      60.0000  Ry
     scf convergence threshold =      1.0E-08
     mixing beta               =       0.3000
     number of iterations used =            8  local-TF  mixing
     Exchange-correlation= SLA  PW   NOGX NOGC
                           (   1   4   0   0   0   0   0)

     celldm(1)=   5.423500  celldm(2)=   0.000000  celldm(3)=   0.000000
     celldm(4)=   0.000000  celldm(5)=   0.000000  celldm(6)=   0.000000

     crystal axes: (cart. coord. in units of alat)
               a(1) = (   0.500000   0.500000   0.500000 )  
               a(2) = (  -0.500000   0.500000   0.500000 )  
               a(3) = (  -0.500000  -0.500000   0.500000 )  

     reciprocal axes: (cart. coord. in units 2 pi/alat)
               b(1) = (  1.000000  0.000000  1.000000 )  
               b(2) = ( -1.000000  1.000000  0.000000 )  
               b(3) = (  0.000000 -1.000000  1.000000 )  


     PseudoPot. # 1 for Fe read from file:
     ./pseudo/Fe.upf
     MD5 check sum: b1fb9d3cb1d156aba92c681262384fac
     Pseudo is Norm-conserving + core correction, Zval = 16.0
     Generated using ONCVPSP code by D. R. Hamann
     Using radial grid of 1408 points,  6 beta functions with: 
                l(1) =   0
                l(2) =   0
                l(3) =   1
                l(4) =   1
                l(5) =   2
                l(6) =   2

     atomic species   valence    mass     pseudopotential
     Fe               16.00    55.84500     Fe( 1.00)

     Starting magnetic structure 
     atomic species   magnetization
     Fe              0.500

     48 Sym. Ops., with inversion, found


                                    s                        frac. trans.

      isym =  1     identity                                     

 cryst.   s( 1) = (     1          0          0      )
                  (     0          1          0      )
                  (     0          0          1      )

 cart.    s( 1) = (  1.0000000  0.0000000  0.0000000 )
                  (  0.0000000  1.0000000  0.0000000 )
                  (  0.0000000  0.0000000  1.0000000 )


      isym =  2     180 deg rotation - cart. axis [0,0,1]        

 cryst.   s( 2) = (     0          0          1      )
                  (     1         -1          1      )
                  (     1          0          0      )

 cart.    s( 2) = ( -1.0000000  0.0000000  0.0000000 )
                  (  0.0000000 -1.0000000  0.0000000 )
                  (  0.0000000  0.0000000  1.0000000 )


      isym =  3     180 deg rotation - cart. axis [0,1,0]        

 cryst.   s( 3) = (    -1          1         -1      )
                  (     0          0         -1      )
                  (     0         -1          0      )

 cart.    s( 3) = ( -1.0000000  0.0000000  0.0000000 )
                  (  0.0000000  1.0000000  0.0000000 )
                  (  0.0000000  0.0000000 -1.0000000 )


      isym =  4     180 deg rotation - cart. axis [1,0,0]        

 cryst.   s( 4) = (     0         -1          0      )
                  (    -1          0          0      )
                  (    -1          1         -1      )

 cart.    s( 4) = (  1.0000000  0.0000000  0.0000000 )
                  (  0.0000000 -1.0000000  0.0000000 )
                  (  0.0000000  0.0000000 -1.0000000 )


      isym =  5     180 deg rotation - cart. axis [1,1,0]        

 cryst.   s( 5) = (     0          0         -1      )
                  (     0         -1          0      )
                  (    -1          0          0      )

 cart.    s( 5) = (  0.0000000  1.0000000  0.0000000 )
                  (  1.0000000  0.0000000  0.0000000 )
                  (  0.0000000  0.0000000 -1.0000000 )


      isym =  6     180 deg rotation - cart. axis [1,-1,0]       

 cryst.   s( 6) = (    -1          0          0      )
                  (    -1          1         -1      )
                  (     0          0         -1      )

 cart.    s( 6) = (  0.0000000 -1.0000000  0.0000000 )
                  ( -1.0000000  0.0000000  0.0000000 )
                  (  0.0000000  0.0000000 -1.0000000 )


      isym =  7      90 deg rotation - cart. axis [0,0,-1]       

 cryst.   s( 7) = (     1         -1          1      )
                  (     1          0          0      )
                  (     0          1          0      )

 cart.    s( 7) = (  0.0000000  1.0000000  0.0000000 )
                  ( -1.0000000  0.0000000  0.0000000 )
                  (  0.0000000  0.0000000  1.0000000 )


      isym =  8      90 deg rotation - cart. axis [0,0,1]        

 cryst.   s( 8) = (     0          1          0      )
                  (     0          0          1      )
                  (     1         -1          1      )

 cart.    s( 8) = (  0.0000000 -1.0000000  0.0000000 )
                  (  1.0000000  0.0000000  0.0000000 )
                  (  0.0000000  0.0000000  1.0000000 )


      isym =  9     180 deg rotation - cart. axis [1,0,1]        

 cryst.   s( 9) = (     1         -1          1      )
                  (     0         -1          0      )
                  (     0          0         -1      )

 cart.    s( 9) = (  0.0000000  0.0000000  1.0000000 )
                  (  0.0000000 -1.0000000  0.0000000 )
                  (  1.0000000  0.0000000  0.0000000 )


      isym = 10     180 deg rotation - cart. axis [-1,0,1]       

 cryst.   s(10) = (    -1          0          0      )
                  (     0          0          1      )
                  (     0          1          0      )

 cart.    s(10) = (  0.0000000  0.0000000 -1.0000000 )
                  (  0.0000000 -1.0000000  0.0000000 )
                  ( -1.0000000  0.0000000  0.0000000 )


      isym = 11      90 deg rotation - cart. axis [0,1,0]        

 cryst.   s(11) = (     0          0         -1      )
                  (     1          0          0      )
                  (     1         -1          1      )

 cart.    s(11) = (  0.0000000  0.0000000  1.0000000 )
                  (  0.0000000  1.0000000  0.0000000 )
                  ( -1.0000000  0.0000000  0.0000000 )


      isym = 12      90 deg rotation - cart. axis [0,-1,0]       

 cryst.   s(12) = (     0          1          0      )
                  (    -1          1         -1      )
                  (    -1          0          0      )

 cart.    s(12) = (  0.0000000  0.0000000 -1.0000000 )
                  (  0.0000000  1.0000000  0.0000000 )
                  (  1.0000000  0.0000000  0.0000000 )


      isym = 13     180 deg rotation - cart. axis [0,1,1]        

 cryst.   s(13) = (     0          1          0      )
                  (     1          0          0      )
                  (     0          0         -1      )

 cart.    s(13) = ( -1.0000000  0.0000000  0.0000000 )
                  (  0.0000000  0.0000000  1.0000000 )
                  (  0.0000000  1.0000000  0.0000000 )


      isym = 14     180 deg rotation - cart. axis [0,1,-1]       

 cryst.   s(14) = (    -1          0          0      )
                  (     0         -1          0      )
                  (     1         -1          1      )

 cart.    s(14) = ( -1.0000000  0.0000000  0.0000000 )
                  (  0.0000000  0.0000000 -1.0000000 )
                  (  0.0000000 -1.0000000  0.0000000 )


      isym = 15      90 deg rotation - cart. axis [-1,0,0]       

 cryst.   s(15) = (     0          0         -1      )
                  (    -1          1         -1      )
                  (     0          1          0      )

 cart.    s(15) = (  1.0000000  0.0000000  0.0000000 )
                  (  0.0000000  0.0000000  1.0000000 )
                  (  0.0000000 -1.0000000  0.0000000 )


      isym = 16      90 deg rotation - cart. axis [1,0,0]        

 cryst.   s(16) = (     1         -1          1      )
                  (     0          0          1      )
                  (    -1          0          0      )

 cart.    s(16) = (  1.0000000  0.0000000  0.0000000 )
                  (  0.0000000  0.0000000 -1.0000000 )
                  (  0.0000000  1.0000000  0.0000000 )


      isym = 17     120 deg rotation - cart. axis [-1,-1,-1]     

 cryst.   s(17) = (     1          0          0      )
                  (     0          0         -1      )
                  (    -1          1         -1      )

 cart.    s(17) = (  0.0000000  1.0000000  0.0000000 )
                  (  0.0000000  0.0000000  1.0000000 )
                  (  1.0000000  0.0000000  0.0000000 )


      isym = 18     120 deg rotation - cart. axis [-1,1,1]       

 cryst.   s(18) = (    -1          1         -1      )
                  (     0          1          0      )
                  (     1          0          0      )

 cart.    s(18) = (  0.0000000 -1.0000000  0.0000000 )
                  (  0.0000000  0.0000000  1.0000000 )
                  ( -1.0000000  0.0000000  0.0000000 )


      isym = 19     120 deg rotation - cart. axis [1,1,-1]       

 cryst.   s(19) = (     0         -1          0      )
                  (     1         -1          1      )
                  (     0          0          1      )

 cart.    s(19) = (  0.0000000  1.0000000  0.0000000 )
                  (  0.0000000  0.0000000 -1.0000000 )
                  ( -1.0000000  0.0000000  0.0000000 )


      isym = 20     120 deg rotation - cart. axis [1,-1,1]       

 cryst.   s(20) = (     0          0          1      )
                  (    -1          0          0      )
                  (     0         -1          0      )

 cart.    s(20) = (  0.0000000 -1.0000000  0.0000000 )
                  (  0.0000000  0.0000000 -1.0000000 )
                  (  1.0000000  0.0000000  0.0000000 )


      isym = 21     120 deg rotation - cart. axis [1,1,1]        

 cryst.   s(21) = (     1          0          0      )
                  (     1         -1          1      )
                  (     0         -1          0      )

 cart.    s(21) = (  0.0000000  0.0000000  1.0000000 )
                  (  1.0000000  0.0000000  0.0000000 )
                  (  0.0000000  1.0000000  0.0000000 )


      isym = 22     120 deg rotation - cart. axis [-1,1,-1]      

 cryst.   s(22) = (     0         -1          0      )
                  (     0          0         -1      )
                  (     1          0          0      )

 cart.    s(22) = (  0.0000000  0.0000000  1.0000000 )
                  ( -1.0000000  0.0000000  0.0000000 )
                  (  0.0000000 -1.0000000  0.0000000 )


      isym = 23     120 deg rotation - cart. axis [1,-1,-1]      

 cryst.   s(23) = (     0          0          1      )
                  (     0          1          0      )
                  (    -1          1         -1      )

 cart.    s(23) = (  0.0000000  0.0000000 -1.0000000 )
                  ( -1.0000000  0.0000000  0.0000000 )
                  (  0.0000000  1.0000000  0.0000000 )


      isym = 24     120 deg rotation - cart. axis [-1,-1,1]      

 cryst.   s(24) = (    -1          1         -1      )
                  (    -1          0          0      )
                  (     0          0          1      )

 cart.    s(24) = (  0.0000000  0.0000000 -1.0000000 )
                  (  1.0000000  0.0000000  0.0000000 )
                  (  0.0000000 -1.0000000  0.0000000 )


      isym = 25     inversion                                    

 cryst.   s(25) = (    -1          0          0      )
                  (     0         -1          0      )
                  (     0          0         -1      )

 cart.    s(25) = ( -1.0000000  0.0000000  0.0000000 )
                  (  0.0000000 -1.0000000  0.0000000 )
                  (  0.0000000  0.0000000 -1.0000000 )


      isym = 26     inv. 180 deg rotation - cart. axis [0,0,1]   

 cryst.   s(26) = (     0          0         -1      )
                  (    -1          1         -1      )
                  (    -1          0          0      )

 cart.    s(26) = (  1.0000000  0.0000000  0.0000000 )
                  (  0.0000000  1.0000000  0.0000000 )
                  (  0.0000000  0.0000000 -1.0000000 )


      isym = 27     inv. 180 deg rotation - cart. axis [0,1,0]   

 cryst.   s(27) = (     1         -1          1      )
                  (     0          0          1      )
                  (     0          1          0      )

 cart.    s(27) = (  1.0000000  0.0000000  0.0000000 )
                  (  0.0000000 -1.0000000  0.0000000 )
                  (  0.0000000  0.0000000  1.0000000 )


      isym = 28     inv. 180 deg rotation - cart. axis [1,0,0]   

 cryst.   s(28) = (     0          1          0      )
                  (     1          0          0      )
                  (     1         -1          1      )

 cart.    s(28) = ( -1.0000000  0.0000000  0.0000000 )
                  (  0.0000000  1.0000000  0.0000000 )
                  (  0.0000000  0.0000000  1.0000000 )


      isym = 29     inv. 180 deg rotation - cart. axis [1,1,0]   

 cryst.   s(29) = (     0          0          1      )
                  (     0          1          0      )
                  (     1          0          0      )

 cart.    s(29) = (  0.0000000 -1.0000000  0.0000000 )
                  ( -1.0000000  0.0000000  0.0000000 )
                  (  0.0000000  0.0000000  1.0000000 )


      isym = 30     inv. 180 deg rotation - cart. axis [1,-1,0]  

 cryst.   s(30) = (     1          0          0      )
                  (     1         -1          1      )
                  (     0          0          1      )

 cart.    s(30) = (  0.0000000  1.0000000  0.0000000 )
                  (  1.0000000  0.0000000  0.0000000 )
                  (  0.0000000  0.0000000  1.0000000 )


      isym = 31     inv.  90 deg rotation - cart. axis [0,0,-1]  

 cryst.   s(31) = (    -1          1         -1      )
                  (    -1          0          0      )
                  (     0         -1          0      )

 cart.    s(31) = (  0.0000000 -1.0000000  0.0000000 )
                  (  1.0000000  0.0000000  0.0000000 )
                  (  0.0000000  0.0000000 -1.0000000 )


      isym = 32     inv.  90 deg rotation - cart. axis [0,0,1]   

 cryst.   s(32) = (     0         -1          0      )
                  (     0          0         -1      )
                  (    -1          1         -1      )

 cart.    s(32) = (  0.0000000  1.0000000  0.0000000 )
                  ( -1.0000000  0.0000000  0.0000000 )
                  (  0.0000000  0.0000000 -1.0000000 )


      isym = 33     inv. 180 deg rotation - cart. axis [1,0,1]   

 cryst.   s(33) = (    -1          1         -1      )
                  (     0          1          0      )
                  (     0          0          1      )

 cart.    s(33) = (  0.0000000  0.0000000 -1.0000000 )
                  (  0.0000000  1.0000000  0.0000000 )
                  ( -1.0000000  0.0000000  0.0000000 )


      isym = 34     inv. 180 deg rotation - cart. axis [-1,0,1]  

 cryst.   s(34) = (     1          0          0      )
                  (     0          0         -1      )
                  (     0         -1          0      )

 cart.    s(34) = (  0.0000000  0.0000000  1.0000000 )
                  (  0.0000000  1.0000000  0.0000000 )
                  (  1.0000000  0.0000000  0.0000000 )


      isym = 35     inv.  90 deg rotation - cart. axis [0,1,0]   

 cryst.   s(35) = (     0          0          1      )
                  (    -1          0          0      )
                  (    -1          1         -1      )

 cart.    s(35) = (  0.0000000  0.0000000 -1.0000000 )
                  (  0.0000000 -1.0000000  0.0000000 )
                  (  1.0000000  0.0000000  0.0000000 )


      isym = 36     inv.  90 deg rotation - cart. axis [0,-1,0]  

 cryst.   s(36) = (     0         -1          0      )
                  (     1         -1          1      )
                  (     1          0          0      )

 cart.    s(36) = (  0.0000000  0.0000000  1.0000000 )
                  (  0.0000000 -1.0000000  0.0000000 )
                  ( -1.0000000  0.0000000  0.0000000 )


      isym = 37     inv. 180 deg rotation - cart. axis [0,1,1]   

 cryst.   s(37) = (     0         -1          0      )
                  (    -1          0          0      )
                  (     0          0          1      )

 cart.    s(37) = (  1.0000000  0.0000000  0.0000000 )
                  (  0.0000000  0.0000000 -1.0000000 )
                  (  0.0000000 -1.0000000  0.0000000 )


      isym = 38     inv. 180 deg rotation - cart. axis [0,1,-1]  

 cryst.   s(38) = (     1          0          0      )
                  (     0          1          0      )
                  (    -1          1         -1      )

 cart.    s(38) = (  1.0000000  0.0000000  0.0000000 )
                  (  0.0000000  0.0000000  1.0000000 )
                  (  0.0000000  1.0000000  0.0000000 )


      isym = 39     inv.  90 deg rotation - cart. axis [-1,0,0]  

 cryst.   s(39) = (     0          0          1      )
                  (     1         -1          1      )
                  (     0         -1          0      )

 cart.    s(39) = ( -1.0000000  0.0000000  0.0000000 )
                  (  0.0000000  0.0000000 -1.0000000 )
                  (  0.0000000  1.0000000  0.0000000 )


      isym = 40     inv.  90 deg rotation - cart. axis [1,0,0]   

 cryst.   s(40) = (    -1          1         -1      )
                  (     0          0         -1      )
                  (     1          0          0      )

 cart.    s(40) = ( -1.0000000  0.0000000  0.0000000 )
                  (  0.0000000  0.0000000  1.0000000 )
                  (  0.0000000 -1.0000000  0.0000000 )


      isym = 41     inv. 120 deg rotation - cart. axis [-1,-1,-1]

 cryst.   s(41) = (    -1          0          0      )
                  (     0          0          1      )
                  (     1         -1          1      )

 cart.    s(41) = (  0.0000000 -1.0000000  0.0000000 )
                  (  0.0000000  0.0000000 -1.0000000 )
                  ( -1.0000000  0.0000000  0.0000000 )


      isym = 42     inv. 120 deg rotation - cart. axis [-1,1,1]  

 cryst.   s(42) = (     1         -1          1      )
                  (     0         -1          0      )
                  (    -1          0          0      )

 cart.    s(42) = (  0.0000000  1.0000000  0.0000000 )
                  (  0.0000000  0.0000000 -1.0000000 )
                  (  1.0000000  0.0000000  0.0000000 )


      isym = 43     inv. 120 deg rotation - cart. axis [1,1,-1]  

 cryst.   s(43) = (     0          1          0      )
                  (    -1          1         -1      )
                  (     0          0         -1      )

 cart.    s(43) = (  0.0000000 -1.0000000  0.0000000 )
                  (  0.0000000  0.0000000  1.0000000 )
                  (  1.0000000  0.0000000  0.0000000 )


      isym = 44     inv. 120 deg rotation - cart. axis [1,-1,1]  

 cryst.   s(44) = (     0          0         -1      )
                  (     1          0          0      )
                  (     0          1          0      )

 cart.    s(44) = (  0.0000000  1.0000000  0.0000000 )
                  (  0.0000000  0.0000000  1.0000000 )
                  ( -1.0000000  0.0000000  0.0000000 )


      isym = 45     inv. 120 deg rotation - cart. axis [1,1,1]   

 cryst.   s(45) = (    -1          0          0      )
                  (    -1          1         -1      )
                  (     0          1          0      )

 cart.    s(45) = (  0.0000000  0.0000000 -1.0000000 )
                  ( -1.0000000  0.0000000  0.0000000 )
                  (  0.0000000 -1.0000000  0.0000000 )


      isym = 46     inv. 120 deg rotation - cart. axis [-1,1,-1] 

 cryst.   s(46) = (     0          1          0      )
                  (     0          0          1      )
                  (    -1          0          0      )

 cart.    s(46) = (  0.0000000  0.0000000 -1.0000000 )
                  (  1.0000000  0.0000000  0.0000000 )
                  (  0.0000000  1.0000000  0.0000000 )


      isym = 47     inv. 120 deg rotation - cart. axis [1,-1,-1] 

 cryst.   s(47) = (     0          0         -1      )
                  (     0         -1          0      )
                  (     1         -1          1      )

 cart.    s(47) = (  0.0000000  0.0000000  1.0000000 )
                  (  1.0000000  0.0000000  0.0000000 )
                  (  0.0000000 -1.0000000  0.0000000 )


      isym = 48     inv. 120 deg rotation - cart. axis [-1,-1,1] 

 cryst.   s(48) = (     1         -1          1      )
                  (     1          0          0      )
                  (     0          0         -1      )

 cart.    s(48) = (  0.0000000  0.0000000  1.0000000 )
                  ( -1.0000000  0.0000000  0.0000000 )
                  (  0.0000000  1.0000000  0.0000000 )


     point group O_h (m-3m) 
     there are 10 classes
     the character table:

       E     8C3   3C2   6C4   6C2'  i     8S6   3s_h  6S4   6s_d 
A_1g   1.00  1.00  1.00  1.00  1.00  1.00  1.00  1.00  1.00  1.00
A_2g   1.00  1.00  1.00 -1.00 -1.00  1.00  1.00  1.00 -1.00 -1.00
E_g    2.00 -1.00  2.00  0.00  0.00  2.00 -1.00  2.00  0.00  0.00
T_1g   3.00  0.00 -1.00  1.00 -1.00  3.00  0.00 -1.00  1.00 -1.00
T_2g   3.00  0.00 -1.00 -1.00  1.00  3.00  0.00 -1.00 -1.00  1.00
A_1u   1.00  1.00  1.00  1.00  1.00 -1.00 -1.00 -1.00 -1.00 -1.00
A_2u   1.00  1.00  1.00 -1.00 -1.00 -1.00 -1.00 -1.00  1.00  1.00
E_u    2.00 -1.00  2.00  0.00  0.00 -2.00  1.00 -2.00  0.00  0.00
T_1u   3.00  0.00 -1.00  1.00 -1.00 -3.00  0.00  1.00 -1.00  1.00
T_2u   3.00  0.00 -1.00 -1.00  1.00 -3.00  0.00  1.00  1.00 -1.00

     the symmetry operations in each class and the name of the first element:

     E        1
          identity                                               
     8C3     17   19   20   18   24   21   22   23
          120 deg rotation - cart. axis [-1,-1,-1]               
     3C2      2    4    3
          180 deg rotation - cart. axis [0,0,1]                  
     6C4      7    8   15   16   12   11
           90 deg rotation - cart. axis [0,0,-1]                 
     6C2'     5    6   14   13   10    9
          180 deg rotation - cart. axis [1,1,0]                  
     i       25
          inversion                                              
     8S6     41   43   44   42   48   45   46   47
          inv. 120 deg rotation - cart. axis [-1,-1,-1]          
     3s_h    26   28   27
          inv. 180 deg rotation - cart. axis [0,0,1]             
     6S4     31   32   39   40   36   35
          inv.  90 deg rotation - cart. axis [0,0,-1]            
     6s_d    29   30   38   37   34   33
          inv. 180 deg rotation - cart. axis [1,1,0]             

   Cartesian axes

     site n.     atom                  positions (alat units)
         1        Fe     tau(   1) = (   0.0000000   0.0000000   0.0000000  )

   Crystallographic axes

     site n.     atom                  positions (cryst. coord.)
         1        Fe     tau(   1) = (  0.0000000  0.0000000  0.0000000  )

     number of k points=    29  Fermi-Dirac smearing, width (Ry)=  0.0200
                       cart. coord. in units 2pi/alat
        k(    1) = (   0.0000000   0.0000000   0.0000000), wk =   0.0019531
        k(    2) = (   0.0000000  -0.1250000   0.1250000), wk =   0.0234375
        k(    3) = (   0.0000000  -0.2500000   0.2500000), wk =   0.0234375
        k(    4) = (   0.0000000  -0.3750000   0.3750000), wk =   0.0234375
        k(    5) = (   0.0000000   0.5000000  -0.5000000), wk =   0.0117188
        k(    6) = (  -0.1250000  -0.1250000   0.2500000), wk =   0.0468750
        k(    7) = (  -0.1250000  -0.2500000   0.3750000), wk =   0.0937500
        k(    8) = (  -0.1250000   0.6250000  -0.5000000), wk =   0.0937500
        k(    9) = (  -0.2500000   0.7500000  -0.5000000), wk =   0.0468750
        k(   10) = (  -0.2500000   0.6250000  -0.3750000), wk =   0.0468750
        k(   11) = (   0.0000000   0.0000000   0.2500000), wk =   0.0117188
        k(   12) = (   0.0000000  -0.1250000   0.3750000), wk =   0.0468750
        k(   13) = (   0.0000000  -0.2500000   0.5000000), wk =   0.0468750
        k(   14) = (   0.0000000   0.6250000  -0.3750000), wk =   0.0234375
        k(   15) = (  -0.1250000  -0.1250000   0.5000000), wk =   0.0468750
        k(   16) = (  -0.1250000   0.7500000  -0.3750000), wk =   0.0937500
        k(   17) = (  -0.2500000   0.2500000   0.2500000), wk =   0.0156250
        k(   18) = (  -0.2500000   0.7500000  -0.2500000), wk =   0.0156250
        k(   19) = (   0.6250000  -0.6250000   0.2500000), wk =   0.0468750
        k(   20) = (   0.5000000  -0.5000000   0.2500000), wk =   0.0234375
        k(   21) = (   0.5000000  -0.6250000   0.3750000), wk =   0.0468750
        k(   22) = (   0.0000000   0.0000000   0.5000000), wk =   0.0117188
        k(   23) = (   0.0000000  -0.1250000   0.6250000), wk =   0.0468750
        k(   24) = (   0.0000000   0.7500000  -0.2500000), wk =   0.0234375
        k(   25) = (  -0.1250000   0.8750000  -0.2500000), wk =   0.0468750
        k(   26) = (   0.5000000  -0.5000000   0.5000000), wk =   0.0039062
        k(   27) = (   0.0000000   0.0000000   0.7500000), wk =   0.0117188
        k(   28) = (   0.0000000   0.8750000  -0.1250000), wk =   0.0234375
        k(   29) = (   0.0000000   0.0000000  -1.0000000), wk =   0.0019531

                       cryst. coord.
        k(    1) = (   0.0000000   0.0000000   0.0000000), wk =   0.0019531
        k(    2) = (   0.0000000   0.0000000   0.1250000), wk =   0.0234375
        k(    3) = (   0.0000000   0.0000000   0.2500000), wk =   0.0234375
        k(    4) = (   0.0000000   0.0000000   0.3750000), wk =   0.0234375
        k(    5) = (   0.0000000   0.0000000  -0.5000000), wk =   0.0117188
        k(    6) = (   0.0000000   0.1250000   0.2500000), wk =   0.0468750
        k(    7) = (   0.0000000   0.1250000   0.3750000), wk =   0.0937500
        k(    8) = (   0.0000000   0.1250000  -0.5000000), wk =   0.0937500
        k(    9) = (   0.0000000   0.2500000  -0.5000000), wk =   0.0468750
        k(   10) = (   0.0000000   0.2500000  -0.3750000), wk =   0.0468750
        k(   11) = (   0.1250000   0.1250000   0.1250000), wk =   0.0117188
        k(   12) = (   0.1250000   0.1250000   0.2500000), wk =   0.0468750
        k(   13) = (   0.1250000   0.1250000   0.3750000), wk =   0.0468750
        k(   14) = (   0.1250000   0.1250000  -0.5000000), wk =   0.0234375
        k(   15) = (   0.1250000   0.2500000   0.3750000), wk =   0.0468750
        k(   16) = (   0.1250000   0.2500000  -0.5000000), wk =   0.0937500
        k(   17) = (   0.1250000   0.3750000   0.1250000), wk =   0.0156250
        k(   18) = (   0.1250000   0.3750000  -0.3750000), wk =   0.0156250
        k(   19) = (   0.1250000  -0.5000000   0.1250000), wk =   0.0468750
        k(   20) = (   0.1250000  -0.3750000   0.1250000), wk =   0.0234375
        k(   21) = (   0.1250000  -0.3750000   0.2500000), wk =   0.0468750
        k(   22) = (   0.2500000   0.2500000   0.2500000), wk =   0.0117188
        k(   23) = (   0.2500000   0.2500000   0.3750000), wk =   0.0468750
        k(   24) = (   0.2500000   0.2500000  -0.5000000), wk =   0.0234375
        k(   25) = (   0.2500000   0.3750000  -0.5000000), wk =   0.0468750
        k(   26) = (   0.2500000  -0.2500000   0.2500000), wk =   0.0039062
        k(   27) = (   0.3750000   0.3750000   0.3750000), wk =   0.0117188
        k(   28) = (   0.3750000   0.3750000  -0.5000000), wk =   0.0234375
        k(   29) = (  -0.5000000  -0.5000000  -0.5000000), wk =   0.0019531

     Dense  grid:      627 G-vectors     FFT dimensions: (  12,  12,  12)

     Dynamical RAM for                 wfc:       0.00 MB

     Dynamical RAM for     wfc (w. buffer):       0.10 MB

     Dynamical RAM for           str. fact:       0.00 MB

     Dynamical RAM for           local pot:       0.00 MB

     Dynamical RAM for          nlocal pot:       0.01 MB

     Dynamical RAM for                qrad:       0.62 MB

     Dynamical RAM for          rho,v,vnew:       0.03 MB

     Dynamical RAM for               rhoin:       0.01 MB

     Dynamical RAM for            rho*nmix:       0.08 MB

     Dynamical RAM for           G-vectors:       0.01 MB

     Dynamical RAM for          h,s,v(r/c):       0.03 MB

     Dynamical RAM for          <psi|beta>:       0.00 MB

     Dynamical RAM for                 psi:       0.01 MB

     Dynamical RAM for                hpsi:       0.01 MB

     Dynamical RAM for      wfcinit/wfcrot:       0.01 MB

     Estimated static dynamical RAM per process >       0.82 MB

     Estimated max dynamical RAM per process >       0.96 MB

     Estimated total dynamical RAM >       7.37 MB

     Check: negative core charge=   -0.013619
     Generating pointlists ...
     new r_m :   0.3572 (alat units)  1.9375 (a.u.) for type    1

     Initial potential from superposition of free atoms

     starting charge      15.9997, renormalised to      16.0000

     negative rho (up, down):  2.396E-02 7.986E-03
     Starting wfcs are   10 randomized atomic wfcs +    2 random wfcs

     total cpu time spent up to now is        0.1 secs

     Self-consistent Calculation

     iteration #  1     ecut=    15.00 Ry     beta= 0.30
     Davidson diagonalization with overlap

---- Real-time Memory Report at c_bands before calling an iterative solver
             0 MiB given to the printing process from OS
             0 MiB allocation reported by mallinfo(arena+hblkhd)
             0 MiB available memory on the node where the printing process lives
------------------
     ethr =  1.00E-02,  avg # of iterations =  5.2

     negative rho (up, down):  4.545E-03 0.000E+00

     total cpu time spent up to now is        0.5 secs

     total energy              =    -231.54855894 Ry
     estimated scf accuracy    <      18.10899201 Ry

     total magnetization       =     1.07 Bohr mag/cell
     absolute magnetization    =     1.07 Bohr mag/cell

     iteration #  2     ecut=    15.00 Ry     beta= 0.30
     Davidson diagonalization with overlap

---- Real-time Memory Report at c_bands before calling an iterative solver
             0 MiB given to the printing process from OS
             0 MiB allocation reported by mallinfo(arena+hblkhd)
             0 MiB available memory on the node where the printing process lives
------------------
     ethr =  1.00E-02,  avg # of iterations =  1.2

     total cpu time spent up to now is        1.3 secs

     total energy              =    -223.29199558 Ry
     estimated scf accuracy    <      11.53588490 Ry

     total magnetization       =     0.93 Bohr mag/cell
     absolute magnetization    =     0.93 Bohr mag/cell

     iteration #  3     ecut=    15.00 Ry     beta= 0.30
     Davidson diagonalization with overlap

---- Real-time Memory Report at c_bands before calling an iterative solver
             0 MiB given to the printing process from OS
             0 MiB allocation reported by mallinfo(arena+hblkhd)
             0 MiB available memory on the node where the printing process lives
------------------
     ethr =  1.00E-02,  avg # of iterations =  2.2

     total cpu time spent up to now is        2.5 secs

     total energy              =    -224.91096536 Ry
     estimated scf accuracy    <       0.22693477 Ry

     total magnetization       =    -0.15 Bohr mag/cell
     absolute magnetization    =     0.16 Bohr mag/cell

     iteration #  4     ecut=    15.00 Ry     beta= 0.30
     Davidson diagonalization with overlap

---- Real-time Memory Report at c_bands before calling an iterative solver
             0 MiB given to the printing process from OS
             0 MiB allocation reported by mallinfo(arena+hblkhd)
             0 MiB available memory on the node where the printing process lives
------------------
     ethr =  1.42E-03,  avg # of iterations =  1.2

     total cpu time spent up to now is        3.4 secs

     total energy              =    -224.91585102 Ry
     estimated scf accuracy    <       0.05732306 Ry

     total magnetization       =    -0.11 Bohr mag/cell
     absolute magnetization    =     0.12 Bohr mag/cell

     iteration #  5     ecut=    15.00 Ry     beta= 0.30
     Davidson diagonalization with overlap

---- Real-time Memory Report at c_bands before calling an iterative solver
             0 MiB given to the printing process from OS
             0 MiB allocation reported by mallinfo(arena+hblkhd)
             0 MiB available memory on the node where the printing process lives
------------------
     ethr =  3.58E-04,  avg # of iterations =  1.2

     total cpu time spent up to now is        4.0 secs

     total energy              =    -224.91738628 Ry
     estimated scf accuracy    <       0.00077896 Ry

     total magnetization       =    -0.07 Bohr mag/cell
     absolute magnetization    =     0.07 Bohr mag/cell

     iteration #  6     ecut=    15.00 Ry     beta= 0.30
     Davidson diagonalization with overlap

---- Real-time Memory Report at c_bands before calling an iterative solver
             0 MiB given to the printing process from OS
             0 MiB allocation reported by mallinfo(arena+hblkhd)
             0 MiB available memory on the node where the printing process lives
------------------
     ethr =  4.87E-06,  avg # of iterations =  2.8

     total cpu time spent up to now is        4.8 secs

     total energy              =    -224.91738108 Ry
     estimated scf accuracy    <       0.00018485 Ry

     total magnetization       =    -0.04 Bohr mag/cell
     absolute magnetization    =     0.04 Bohr mag/cell

     iteration #  7     ecut=    15.00 Ry     beta= 0.30
     Davidson diagonalization with overlap

---- Real-time Memory Report at c_bands before calling an iterative solver
             0 MiB given to the printing process from OS
             0 MiB allocation reported by mallinfo(arena+hblkhd)
             0 MiB available memory on the node where the printing process lives
------------------
     ethr =  1.16E-06,  avg # of iterations =  2.1

     total cpu time spent up to now is        5.6 secs

     total energy              =    -224.91744378 Ry
     estimated scf accuracy    <       0.00000812 Ry

     total magnetization       =    -0.02 Bohr mag/cell
     absolute magnetization    =     0.02 Bohr mag/cell

     iteration #  8     ecut=    15.00 Ry     beta= 0.30
     Davidson diagonalization with overlap

---- Real-time Memory Report at c_bands before calling an iterative solver
             0 MiB given to the printing process from OS
             0 MiB allocation reported by mallinfo(arena+hblkhd)
             0 MiB available memory on the node where the printing process lives
------------------
     ethr =  5.07E-08,  avg # of iterations =  1.1

     total cpu time spent up to now is        6.1 secs

     total energy              =    -224.91744643 Ry
     estimated scf accuracy    <       0.00000379 Ry

     total magnetization       =    -0.01 Bohr mag/cell
     absolute magnetization    =     0.01 Bohr mag/cell

     iteration #  9     ecut=    15.00 Ry     beta= 0.30
     Davidson diagonalization with overlap

---- Real-time Memory Report at c_bands before calling an iterative solver
             0 MiB given to the printing process from OS
             0 MiB allocation reported by mallinfo(arena+hblkhd)
             0 MiB available memory on the node where the printing process lives
------------------
     ethr =  2.37E-08,  avg # of iterations =  1.5

     total cpu time spent up to now is        6.2 secs

     total energy              =    -224.91744929 Ry
     estimated scf accuracy    <       0.00000026 Ry

     total magnetization       =    -0.00 Bohr mag/cell
     absolute magnetization    =     0.00 Bohr mag/cell

     iteration # 10     ecut=    15.00 Ry     beta= 0.30
     Davidson diagonalization with overlap

---- Real-time Memory Report at c_bands before calling an iterative solver
             0 MiB given to the printing process from OS
             0 MiB allocation reported by mallinfo(arena+hblkhd)
             0 MiB available memory on the node where the printing process lives
------------------
     ethr =  1.62E-09,  avg # of iterations =  2.0

     Magnetic moment per site  (integrated on atomic sphere of radius R)
     atom   1 (R=0.357)  charge= 13.7080  magn=  0.0001

     total cpu time spent up to now is        6.2 secs

     End of self-consistent calculation

 ------ SPIN UP ------------


          k = 0.0000 0.0000 0.0000 (    79 PWs)   bands (ev):

  -122.5041 -46.4140 -46.4140 -46.4140   9.2567  23.8230  23.8230  24.4515
    24.4515  24.4515  45.4725  45.4725

     occupation numbers 
     1.0000   1.0000   1.0000   1.0000   1.0000   0.9998   0.9998   0.9984
     0.9984   0.9984   0.0000   0.0000

          k = 0.0000-0.1250 0.1250 (    81 PWs)   bands (ev):

  -122.6381 -47.9128 -47.1980 -46.3246   9.9229  23.2198  23.9412  24.0275
    24.0791  24.1508  45.6806  46.8223

     occupation numbers 
     1.0000   1.0000   1.0000   1.0000   1.0000   1.0000   0.9998   0.9997
     0.9996   0.9995   0.0000   0.0000

          k = 0.0000-0.2500 0.2500 (    75 PWs)   bands (ev):

  -121.7996 -46.4429 -43.3664 -42.5044  12.2794  23.5187  23.5641  24.8199
    26.2201  28.2262  43.1166  44.4314

     occupation numbers 
     1.0000   1.0000   1.0000   1.0000   1.0000   0.9999   0.9999   0.9938
     0.4821   0.0006   0.0000   0.0000

          k = 0.0000-0.3750 0.3750 (    76 PWs)   bands (ev):

  -121.8247 -46.4711 -45.3974 -41.9997  14.7718  22.8296  23.2592  25.8893
    27.6697  29.1897  34.2235  41.8119

     occupation numbers 
     1.0000   1.0000   1.0000   1.0000   1.0000   1.0000   1.0000   0.7585
     0.0045   0.0000   0.0000   0.0000

          k = 0.0000 0.5000-0.5000 (    76 PWs)   bands (ev):

  -121.8590 -47.3546 -43.2320 -42.8736  16.5059  22.3240  23.7436  27.0575
    28.2380  29.2669  30.6011  40.6673

     occupation numbers 
     1.0000   1.0000   1.0000   1.0000   1.0000   1.0000   0.9999   0.0411
     0.0006   0.0000   0.0000   0.0000

          k =-0.1250-0.1250 0.2500 (    76 PWs)   bands (ev):

  -121.9080 -46.3178 -45.2584 -41.9133  11.6437  23.5629  23.5917  24.6064
    25.7968  28.2151  44.6931  46.0733

     occupation numbers 
     1.0000   1.0000   1.0000   1.0000   1.0000   0.9999   0.9999   0.9972
     0.8152   0.0006   0.0000   0.0000

          k =-0.1250-0.2500 0.3750 (    75 PWs)   bands (ev):

  -121.6857 -44.9323 -44.2370 -42.6869  14.2696  22.4955  23.0238  25.5905
    27.7687  29.0994  37.1581  43.8731

     occupation numbers 
     1.0000   1.0000   1.0000   1.0000   1.0000   1.0000   1.0000   0.9040
     0.0031   0.0000   0.0000   0.0000

          k =-0.1250 0.6250-0.5000 (    79 PWs)   bands (ev):

  -122.2556 -48.2888 -47.2438 -42.6887  16.4804  21.9748  22.4221  25.9004
    27.3896  28.7101  30.6965  41.2474

     occupation numbers 
     1.0000   1.0000   1.0000   1.0000   1.0000   1.0000   1.0000   0.7509
     0.0125   0.0001   0.0000   0.0000

          k =-0.2500 0.7500-0.5000 (    78 PWs)   bands (ev):

  -122.0615 -47.0811 -44.9187 -44.2018  16.8342  21.7376  22.4024  25.7580
    27.5514  29.0272  32.7538  41.3633

     occupation numbers 
     1.0000   1.0000   1.0000   1.0000   1.0000   1.0000   1.0000   0.8357
     0.0069   0.0000   0.0000   0.0000

          k =-0.2500 0.6250-0.3750 (    79 PWs)   bands (ev):

  -122.2436 -47.5060 -46.5906 -43.9866  18.5119  21.4388  21.6580  26.1688
    26.9804  27.8304  32.8502  38.2052

     occupation numbers 
     1.0000   1.0000   1.0000   1.0000   1.0000   1.0000   1.0000   0.5292
     0.0539   0.0025   0.0000   0.0000

          k = 0.0000 0.0000 0.2500 (    79 PWs)   bands (ev):

  -122.3439 -47.7137 -47.7137 -42.7925  10.7823  22.8805  23.7643  23.7643
    24.0944  28.2602  45.5672  46.3625

     occupation numbers 
     1.0000   1.0000   1.0000   1.0000   1.0000   1.0000   0.9999   0.9999
     0.9996   0.0005   0.0000   0.0000

          k = 0.0000-0.1250 0.3750 (    78 PWs)   bands (ev):

  -122.1164 -47.5050 -46.2811 -42.5271  12.8080  22.4775  23.0901  24.0463
    25.6057  28.4155  41.8832  45.7416

     occupation numbers 
     1.0000   1.0000   1.0000   1.0000   1.0000   1.0000   1.0000   0.9996
     0.8990   0.0003   0.0000   0.0000

          k = 0.0000-0.2500 0.5000 (    77 PWs)   bands (ev):

  -121.8466 -46.6891 -44.6185 -42.9988  15.7144  22.7353  23.3827  25.5882
    27.7300  27.7916  34.2335  43.2790

     occupation numbers 
     1.0000   1.0000   1.0000   1.0000   1.0000   1.0000   1.0000   0.9047
     0.0036   0.0029   0.0000   0.0000

          k = 0.0000 0.6250-0.3750 (    76 PWs)   bands (ev):

  -121.7573 -47.2171 -43.1213 -42.6974  17.2413  22.8553  23.2909  25.9044
    28.7144  29.2416  30.4413  42.6372

     occupation numbers 
     1.0000   1.0000   1.0000   1.0000   1.0000   1.0000   1.0000   0.7481
     0.0001   0.0000   0.0000   0.0000

          k =-0.1250-0.1250 0.5000 (    78 PWs)   bands (ev):

  -121.9262 -46.5823 -45.6184 -43.1369  15.3662  21.7790  23.5053  24.0567
    26.8917  28.4485  37.7199  44.6702

     occupation numbers 
     1.0000   1.0000   1.0000   1.0000   1.0000   1.0000   1.0000   0.9996
     0.0731   0.0003   0.0000   0.0000

          k =-0.1250 0.7500-0.3750 (    79 PWs)   bands (ev):

  -122.0424 -47.6486 -45.5807 -43.7664  17.7654  21.4875  23.1444  24.4135
    27.3417  30.0449  32.4865  39.7208

     occupation numbers 
     1.0000   1.0000   1.0000   1.0000   1.0000   1.0000   1.0000   0.9986
     0.0149   0.0000   0.0000   0.0000

          k =-0.2500 0.2500 0.2500 (    68 PWs)   bands (ev):

  -120.8027 -41.0883 -41.0883 -40.4612  14.1189  23.1658  23.1658  28.9884
    29.1250  29.1250  41.3433  45.6047

     occupation numbers 
     1.0000   1.0000   1.0000   1.0000   1.0000   1.0000   1.0000   0.0000
     0.0000   0.0000   0.0000   0.0000

          k =-0.2500 0.7500-0.2500 (    83 PWs)   bands (ev):

  -122.5606 -48.2497 -48.2497 -46.5642  19.7839  21.1386  21.1386  24.5525
    24.5525  28.6561  34.3309  34.3309

     occupation numbers 
     1.0000   1.0000   1.0000   1.0000   1.0000   1.0000   1.0000   0.9977
     0.9977   0.0001   0.0000   0.0000

          k = 0.6250-0.6250 0.2500 (    78 PWs)   bands (ev):

  -122.1539 -48.2675 -46.1840 -42.4232  16.3636  21.3973  21.8384  26.7361
    28.3450  28.6667  31.5016  41.8801

     occupation numbers 
     1.0000   1.0000   1.0000   1.0000   1.0000   1.0000   1.0000   0.1226
     0.0004   0.0001   0.0000   0.0000

          k = 0.5000-0.5000 0.2500 (    76 PWs)   bands (ev):

  -121.9642 -46.4082 -45.9525 -42.0006  17.8918  21.5304  22.0288  26.3628
    27.6751  29.1192  33.3254  41.1127

     occupation numbers 
     1.0000   1.0000   1.0000   1.0000   1.0000   1.0000   1.0000   0.3552
     0.0044   0.0000   0.0000   0.0000

          k = 0.5000-0.6250 0.3750 (    77 PWs)   bands (ev):

  -122.1255 -46.5553 -46.4568 -42.8958  19.1817  20.8166  21.3741  25.9658
    28.4576  28.8026  34.5148  37.5480

     occupation numbers 
     1.0000   1.0000   1.0000   1.0000   1.0000   1.0000   1.0000   0.7033
     0.0002   0.0001   0.0000   0.0000

          k = 0.0000 0.0000 0.5000 (    75 PWs)   bands (ev):

  -121.5271 -44.5309 -44.5309 -41.7499  15.0724  22.5101  24.7973  24.7973
    26.1292  27.8136  40.6336  49.1482

     occupation numbers 
     1.0000   1.0000   1.0000   1.0000   1.0000   1.0000   0.9943   0.9943
     0.5652   0.0027   0.0000   0.0000

          k = 0.0000-0.1250 0.6250 (    85 PWs)   bands (ev):

  -122.5527 -49.6835 -47.7194 -47.0072  17.3992  20.2813  23.0317  23.1427
    26.6441  26.7026  35.1485  41.3275

     occupation numbers 
     1.0000   1.0000   1.0000   1.0000   1.0000   1.0000   1.0000   1.0000
     0.1638   0.1365   0.0000   0.0000

          k = 0.0000 0.7500-0.2500 (    84 PWs)   bands (ev):

  -122.4478 -48.2773 -47.8751 -46.9267  18.6560  20.9065  21.5674  23.9975
    28.4718  29.2935  31.1492  38.4315

     occupation numbers 
     1.0000   1.0000   1.0000   1.0000   1.0000   1.0000   1.0000   0.9997
     0.0002   0.0000   0.0000   0.0000

          k =-0.1250 0.8750-0.2500 (    84 PWs)   bands (ev):

  -122.4031 -48.3931 -48.1237 -46.3190  19.7345  19.8817  21.8302  25.5881
    26.6831  29.4926  32.9130  35.9103

     occupation numbers 
     1.0000   1.0000   1.0000   1.0000   1.0000   1.0000   1.0000   0.9047
     0.1452   0.0000   0.0000   0.0000

          k = 0.5000-0.5000 0.5000 (    80 PWs)   bands (ev):

  -122.5043 -46.7094 -46.7094 -46.7094  20.5667  20.5667  20.5667  23.5846
    28.6617  28.6617  36.9877  36.9877

     occupation numbers 
     1.0000   1.0000   1.0000   1.0000   1.0000   1.0000   1.0000   0.9999
     0.0001   0.0001   0.0000   0.0000

          k = 0.0000 0.0000 0.7500 (    80 PWs)   bands (ev):

  -121.8910 -45.6983 -45.6983 -45.4430  19.0573  20.1852  26.0310  26.2265
    26.2265  27.8084  38.7275  38.7275

     occupation numbers 
     1.0000   1.0000   1.0000   1.0000   1.0000   1.0000   0.6509   0.4763
     0.4763   0.0027   0.0000   0.0000

          k = 0.0000 0.8750-0.1250 (    82 PWs)   bands (ev):

  -122.1302 -47.9294 -46.5782 -45.3662  19.0922  20.1258  25.6272  26.4735
    28.0644  29.6802  31.9828  35.8186

     occupation numbers 
     1.0000   1.0000   1.0000   1.0000   1.0000   1.0000   0.8916   0.2684
     0.0011   0.0000   0.0000   0.0000

          k = 0.0000 0.0000-1.0000 (    92 PWs)   bands (ev):

  -123.1740 -51.3051 -51.3051 -51.3051  17.3297  17.3297  26.5153  26.5153
    26.5153  30.2926  31.9635  31.9635

     occupation numbers 
     1.0000   1.0000   1.0000   1.0000   1.0000   1.0000   0.2393   0.2393
     0.2393   0.0000   0.0000   0.0000

 ------ SPIN DOWN ----------


          k = 0.0000 0.0000 0.0000 (    79 PWs)   bands (ev):

  -122.5040 -46.4137 -46.4137 -46.4137   9.2568  23.8233  23.8233  24.4518
    24.4518  24.4518  45.4726  45.4726

     occupation numbers 
     1.0000   1.0000   1.0000   1.0000   1.0000   0.9998   0.9998   0.9984
     0.9984   0.9984   0.0000   0.0000

          k = 0.0000-0.1250 0.1250 (    81 PWs)   bands (ev):

  -122.6379 -47.9125 -47.1978 -46.3243   9.9231  23.2201  23.9415  24.0278
    24.0793  24.1511  45.6808  46.8225

     occupation numbers 
     1.0000   1.0000   1.0000   1.0000   1.0000   1.0000   0.9998   0.9997
     0.9996   0.9995   0.0000   0.0000

          k = 0.0000-0.2500 0.2500 (    75 PWs)   bands (ev):

  -121.7995 -46.4426 -43.3661 -42.5041  12.2796  23.5190  23.5644  24.8202
    26.2204  28.2265  43.1168  44.4316

     occupation numbers 
     1.0000   1.0000   1.0000   1.0000   1.0000   0.9999   0.9999   0.9938
     0.4818   0.0006   0.0000   0.0000

          k = 0.0000-0.3750 0.3750 (    76 PWs)   bands (ev):

  -121.8246 -46.4708 -45.3971 -41.9995  14.7720  22.8298  23.2594  25.8896
    27.6700  29.1900  34.2237  41.8121

     occupation numbers 
     1.0000   1.0000   1.0000   1.0000   1.0000   1.0000   1.0000   0.7583
     0.0045   0.0000   0.0000   0.0000

          k = 0.0000 0.5000-0.5000 (    76 PWs)   bands (ev):

  -121.8589 -47.3544 -43.2317 -42.8733  16.5061  22.3242  23.7437  27.0578
    28.2383  29.2672  30.6014  40.6674

     occupation numbers 
     1.0000   1.0000   1.0000   1.0000   1.0000   1.0000   0.9999   0.0411
     0.0006   0.0000   0.0000   0.0000

          k =-0.1250-0.1250 0.2500 (    76 PWs)   bands (ev):

  -121.9079 -46.3175 -45.2581 -41.9130  11.6439  23.5632  23.5920  24.6067
    25.7970  28.2154  44.6933  46.0735

     occupation numbers 
     1.0000   1.0000   1.0000   1.0000   1.0000   0.9999   0.9999   0.9971
     0.8150   0.0006   0.0000   0.0000

          k =-0.1250-0.2500 0.3750 (    75 PWs)   bands (ev):

  -121.6855 -44.9320 -44.2368 -42.6867  14.2698  22.4957  23.0241  25.5908
    27.7690  29.0997  37.1583  43.8732

     occupation numbers 
     1.0000   1.0000   1.0000   1.0000   1.0000   1.0000   1.0000   0.9039
     0.0031   0.0000   0.0000   0.0000

          k =-0.1250 0.6250-0.5000 (    79 PWs)   bands (ev):

  -122.2555 -48.2885 -47.2436 -42.6884  16.4806  21.9751  22.4223  25.9007
    27.3899  28.7104  30.6968  41.2476

     occupation numbers 
     1.0000   1.0000   1.0000   1.0000   1.0000   1.0000   1.0000   0.7507
     0.0125   0.0001   0.0000   0.0000

          k =-0.2500 0.7500-0.5000 (    78 PWs)   bands (ev):

  -122.0614 -47.0808 -44.9184 -44.2016  16.8344  21.7378  22.4026  25.7583
    27.5517  29.0274  32.7540  41.3635

     occupation numbers 
     1.0000   1.0000   1.0000   1.0000   1.0000   1.0000   1.0000   0.8356
     0.0069   0.0000   0.0000   0.0000

          k =-0.2500 0.6250-0.3750 (    79 PWs)   bands (ev):

  -122.2434 -47.5057 -46.5904 -43.9863  18.5121  21.4390  21.6582  26.1691
    26.9807  27.8307  32.8504  38.2054

     occupation numbers 
     1.0000   1.0000   1.0000   1.0000   1.0000   1.0000   1.0000   0.5289
     0.0538   0.0025   0.0000   0.0000

          k = 0.0000 0.0000 0.2500 (    79 PWs)   bands (ev):

  -122.3438 -47.7134 -47.7134 -42.7922  10.7825  22.8808  23.7646  23.7646
    24.0947  28.2606  45.5673  46.3627

     occupation numbers 
     1.0000   1.0000   1.0000   1.0000   1.0000   1.0000   0.9999   0.9999
     0.9996   0.0005   0.0000   0.0000

          k = 0.0000-0.1250 0.3750 (    78 PWs)   bands (ev):

  -122.1162 -47.5047 -46.2809 -42.5268  12.8082  22.4778  23.0904  24.0465
    25.6060  28.4158  41.8834  45.7418

     occupation numbers 
     1.0000   1.0000   1.0000   1.0000   1.0000   1.0000   1.0000   0.9996
     0.8989   0.0003   0.0000   0.0000

          k = 0.0000-0.2500 0.5000 (    77 PWs)   bands (ev):

  -121.8465 -46.6889 -44.6182 -42.9985  15.7146  22.7355  23.3830  25.5885
    27.7303  27.7919  34.2337  43.2792

     occupation numbers 
     1.0000   1.0000   1.0000   1.0000   1.0000   1.0000   1.0000   0.9046
     0.0036   0.0029   0.0000   0.0000

          k = 0.0000 0.6250-0.3750 (    76 PWs)   bands (ev):

  -121.7572 -47.2168 -43.1210 -42.6971  17.2415  22.8555  23.2911  25.9047
    28.7147  29.2420  30.4416  42.6374

     occupation numbers 
     1.0000   1.0000   1.0000   1.0000   1.0000   1.0000   1.0000   0.7479
     0.0001   0.0000   0.0000   0.0000

          k =-0.1250-0.1250 0.5000 (    78 PWs)   bands (ev):

  -121.9261 -46.5820 -45.6182 -43.1367  15.3664  21.7793  23.5056  24.0570
    26.8920  28.4487  37.7201  44.6704

     occupation numbers 
     1.0000   1.0000   1.0000   1.0000   1.0000   1.0000   1.0000   0.9996
     0.0730   0.0003   0.0000   0.0000

          k =-0.1250 0.7500-0.3750 (    79 PWs)   bands (ev):

  -122.0422 -47.6483 -45.5804 -43.7661  17.7656  21.4877  23.1446  24.4138
    27.3420  30.0452  32.4868  39.7210

     occupation numbers 
     1.0000   1.0000   1.0000   1.0000   1.0000   1.0000   1.0000   0.9986
     0.0149   0.0000   0.0000   0.0000

          k =-0.2500 0.2500 0.2500 (    68 PWs)   bands (ev):

  -120.8026 -41.0881 -41.0881 -40.4610  14.1191  23.1660  23.1660  28.9887
    29.1253  29.1253  41.3435  45.6049

     occupation numbers 
     1.0000   1.0000   1.0000   1.0000   1.0000   1.0000   1.0000   0.0000
     0.0000   0.0000   0.0000   0.0000

          k =-0.2500 0.7500-0.2500 (    83 PWs)   bands (ev):

  -122.5605 -48.2494 -48.2494 -46.5639  19.7841  21.1388  21.1388  24.5528
    24.5528  28.6564  34.3312  34.3312

     occupation numbers 
     1.0000   1.0000   1.0000   1.0000   1.0000   1.0000   1.0000   0.9977
     0.9977   0.0001   0.0000   0.0000

          k = 0.6250-0.6250 0.2500 (    78 PWs)   bands (ev):

  -122.1537 -48.2673 -46.1837 -42.4229  16.3638  21.3976  21.8386  26.7364
    28.3453  28.6670  31.5018  41.8803

     occupation numbers 
     1.0000   1.0000   1.0000   1.0000   1.0000   1.0000   1.0000   0.1225
     0.0004   0.0001   0.0000   0.0000

          k = 0.5000-0.5000 0.2500 (    76 PWs)   bands (ev):

  -121.9641 -46.4080 -45.9522 -42.0003  17.8920  21.5306  22.0290  26.3631
    27.6753  29.1196  33.3256  41.1129

     occupation numbers 
     1.0000   1.0000   1.0000   1.0000   1.0000   1.0000   1.0000   0.3550
     0.0044   0.0000   0.0000   0.0000

          k = 0.5000-0.6250 0.3750 (    77 PWs)   bands (ev):

  -122.1254 -46.5550 -46.4565 -42.8955  19.1819  20.8168  21.3743  25.9660
    28.4580  28.8029  34.5150  37.5482

     occupation numbers 
     1.0000   1.0000   1.0000   1.0000   1.0000   1.0000   1.0000   0.7031
     0.0002   0.0001   0.0000   0.0000

          k = 0.0000 0.0000 0.5000 (    75 PWs)   bands (ev):

  -121.5270 -44.5307 -44.5307 -41.7496  15.0726  22.5104  24.7975  24.7975
    26.1295  27.8139  40.6338  49.1484

     occupation numbers 
     1.0000   1.0000   1.0000   1.0000   1.0000   1.0000   0.9943   0.9943
     0.5650   0.0027   0.0000   0.0000

          k = 0.0000-0.1250 0.6250 (    85 PWs)   bands (ev):

  -122.5526 -49.6833 -47.7192 -47.0070  17.3994  20.2815  23.0320  23.1430
    26.6444  26.7029  35.1487  41.3277

     occupation numbers 
     1.0000   1.0000   1.0000   1.0000   1.0000   1.0000   1.0000   1.0000
     0.1637   0.1364   0.0000   0.0000

          k = 0.0000 0.7500-0.2500 (    84 PWs)   bands (ev):

  -122.4477 -48.2770 -47.8748 -46.9264  18.6562  20.9067  21.5676  23.9978
    28.4721  29.2937  31.1495  38.4317

     occupation numbers 
     1.0000   1.0000   1.0000   1.0000   1.0000   1.0000   1.0000   0.9997
     0.0002   0.0000   0.0000   0.0000

          k =-0.1250 0.8750-0.2500 (    84 PWs)   bands (ev):

  -122.4029 -48.3928 -48.1235 -46.3187  19.7347  19.8819  21.8304  25.5884
    26.6834  29.4929  32.9132  35.9105

     occupation numbers 
     1.0000   1.0000   1.0000   1.0000   1.0000   1.0000   1.0000   0.9046
     0.1450   0.0000   0.0000   0.0000

          k = 0.5000-0.5000 0.5000 (    80 PWs)   bands (ev):

  -122.5042 -46.7092 -46.7092 -46.7092  20.5669  20.5669  20.5669  23.5848
    28.6620  28.6620  36.9879  36.9879

     occupation numbers 
     1.0000   1.0000   1.0000   1.0000   1.0000   1.0000   1.0000   0.9999
     0.0001   0.0001   0.0000   0.0000

          k = 0.0000 0.0000 0.7500 (    80 PWs)   bands (ev):

  -121.8908 -45.6981 -45.6981 -45.4427  19.0575  20.1854  26.0313  26.2267
    26.2267  27.8087  38.7277  38.7277

     occupation numbers 
     1.0000   1.0000   1.0000   1.0000   1.0000   1.0000   0.6507   0.4760
     0.4760   0.0027   0.0000   0.0000

          k = 0.0000 0.8750-0.1250 (    82 PWs)   bands (ev):

  -122.1301 -47.9291 -46.5779 -45.3659  19.0924  20.1260  25.6275  26.4738
    28.0647  29.6805  31.9830  35.8188

     occupation numbers 
     1.0000   1.0000   1.0000   1.0000   1.0000   1.0000   0.8915   0.2682
     0.0011   0.0000   0.0000   0.0000

          k = 0.0000 0.0000-1.0000 (    92 PWs)   bands (ev):

  -123.1738 -51.3049 -51.3049 -51.3049  17.3300  17.3300  26.5156  26.5156
    26.5156  30.2928  31.9637  31.9637

     occupation numbers 
     1.0000   1.0000   1.0000   1.0000   1.0000   1.0000   0.2391   0.2391
     0.2391   0.0000   0.0000   0.0000

     the Fermi energy is    26.2006 ev

!    total energy              =    -224.91744934 Ry
     estimated scf accuracy    <          1.7E-09 Ry
     smearing contrib. (-TS)   =      -0.01900862 Ry
     internal energy E=F+TS    =    -224.89844072 Ry

     The total energy is F=E-TS. E is the sum of the following terms:
     one-electron contribution =     -50.85651213 Ry
     hartree contribution      =      26.64115855 Ry
     xc contribution           =     -28.90402134 Ry
     ewald contribution        =    -171.77906580 Ry

     total magnetization       =     0.00 Bohr mag/cell
     absolute magnetization    =     0.00 Bohr mag/cell

     convergence has been achieved in  10 iterations

     Writing all to output data dir ./tmp/fe_fm.save/ :
     XML data file, charge density, pseudopotentials, collected wavefunctions

     init_run     :      0.03s CPU      0.04s WALL (       1 calls)
     electrons    :      3.97s CPU      6.14s WALL (       1 calls)

     Called by init_run:
     wfcinit      :      0.01s CPU      0.01s WALL (       1 calls)
     wfcinit:atom :      0.00s CPU      0.00s WALL (      29 calls)
     wfcinit:wfcr :      0.01s CPU      0.01s WALL (      29 calls)
     potinit      :      0.00s CPU      0.00s WALL (       1 calls)
     hinit0       :      0.02s CPU      0.02s WALL (       1 calls)

     Called by electrons:
     c_bands      :      3.21s CPU      5.00s WALL (      10 calls)
     sum_band     :      0.39s CPU      0.60s WALL (      10 calls)
     v_of_rho     :      0.09s CPU      0.10s WALL (      11 calls)
     v_h          :      0.00s CPU      0.00s WALL (      11 calls)
     v_xc         :      0.09s CPU      0.10s WALL (      11 calls)
     mix_rho      :      0.00s CPU      0.01s WALL (      10 calls)

     Called by c_bands:
     init_us_2    :      0.00s CPU      0.00s WALL (     609 calls)
     cegterg      :      0.88s CPU      1.32s WALL (     290 calls)

     Called by sum_band:
     sum_band:wei :      0.05s CPU      0.05s WALL (      10 calls)
     sum_band:loo :      0.15s CPU      0.26s WALL (      10 calls)
     sum_band:buf :      0.00s CPU      0.00s WALL (     290 calls)
     sum_band:ini :      0.00s CPU      0.00s WALL (     290 calls)

     Called by *egterg:
     cdiaghg      :      0.08s CPU      0.12s WALL (     888 calls)
     cegterg:over :      0.02s CPU      0.02s WALL (     598 calls)
     cegterg:upda :      0.00s CPU      0.01s WALL (     598 calls)
     cegterg:last :      0.00s CPU      0.00s WALL (     494 calls)
     h_psi        :      0.72s CPU      1.08s WALL (     917 calls)
     g_psi        :      0.00s CPU      0.00s WALL (     598 calls)

     Called by h_psi:
     h_psi:calbec :      0.02s CPU      0.04s WALL (     917 calls)
     vloc_psi     :      0.69s CPU      1.03s WALL (     917 calls)
                                        0.00s GPU  (     917 calls)
     add_vuspsi   :      0.00s CPU      0.01s WALL (     917 calls)

     General routines
     calbec       :      0.02s CPU      0.04s WALL (     917 calls)
     fft          :      0.00s CPU      0.00s WALL (      53 calls)
     ffts         :      0.03s CPU      0.05s WALL (     157 calls)
     fftw         :      0.82s CPU      1.27s WALL (   20670 calls)

     Parallel routines

     PWSCF        :      4.04s CPU      6.25s WALL


   This run was terminated on:  18: 8:52  17Apr2026            

=------------------------------------------------------------------------------=
   JOB DONE.
=------------------------------------------------------------------------------=
Note: The following floating-point exceptions are signalling: IEEE_INVALID_FLAG IEEE_DIVIDE_BY_ZERO IEEE_UNDERFLOW_FLAG
Note: The following floating-point exceptions are signalling: IEEE_INVALID_FLAG IEEE_DIVIDE_BY_ZERO IEEE_UNDERFLOW_FLAG
